26 26
22
3 3   3 23
3 4   20 22
3 5   23 21
3 6   23 15
3 7   0 19
3 8   20 14
3 9   14 17
3 10   17 16
3 11   3 12
3 12   3 0
3 14   20 0
3 15   23 0
3 16   17 0
3 17   14 0
3 19   0 0
4 3   6 23
4 4   6 19
4 5   10 21
4 7   10 14
4 8   6 11
4 11   6 0
4 14   10 0